
Value of objective function: 9790

Actual values of the variables:
R0                              0
R1                              0
R3                              0
R4                              0
R5                              0
R6                              1
R7                              0
R9                              0
R10                             0
R11                             0
Rini                            0
Rfim                            0
Tini                            0
T0                              0
T1                              4
T3                             23
T5                             19
T4                             10
T7                              4
T10                             4
T6                              0
T9                             19
T11                            12
Tfim                           25
